(set-info :source Astral)
(set-info :status sat)

(declare-sort Loc 0)
(declare-heap (Loc Loc))

(declare-const x1 Loc)
(declare-const x2 Loc)
(declare-const x3 Loc)
(declare-const x4 Loc)
(declare-const x5 Loc)
(declare-const x6 Loc)
(declare-const x7 Loc)
(declare-const x8 Loc)
(declare-const x9 Loc)
(declare-const x10 Loc)
(declare-const x11 Loc)
(declare-const x12 Loc)
(declare-const x13 Loc)
(declare-const x14 Loc)
(declare-const x15 Loc)
(declare-const x16 Loc)
(declare-const x17 Loc)
(declare-const x18 Loc)

(assert (not (wand (pto x1 (as sep.nil Loc)) false)))
(assert (not (wand (pto x2 (as sep.nil Loc)) false)))
(assert (not (wand (pto x3 (as sep.nil Loc)) false)))
(assert (not (wand (pto x4 (as sep.nil Loc)) false)))
(assert (not (wand (pto x5 (as sep.nil Loc)) false)))
(assert (not (wand (pto x6 (as sep.nil Loc)) false)))
(assert (not (wand (pto x7 (as sep.nil Loc)) false)))
(assert (not (wand (pto x8 (as sep.nil Loc)) false)))
(assert (not (wand (pto x9 (as sep.nil Loc)) false)))
(assert (not (wand (pto x10 (as sep.nil Loc)) false)))
(assert (not (wand (pto x11 (as sep.nil Loc)) false)))
(assert (not (wand (pto x12 (as sep.nil Loc)) false)))
(assert (not (wand (pto x13 (as sep.nil Loc)) false)))
(assert (not (wand (pto x14 (as sep.nil Loc)) false)))
(assert (not (wand (pto x15 (as sep.nil Loc)) false)))
(assert (not (wand (pto x16 (as sep.nil Loc)) false)))
(assert (not (wand (pto x17 (as sep.nil Loc)) false)))
(assert (not (wand (pto x18 (as sep.nil Loc)) false)))

(check-sat)